molecule{
0 1
O          1.02678       -0.07839        0.03182
H          0.74793       -0.99954       -0.08083
H          1.99466       -0.12448        0.02618
units angstrom
}

set basis sto-3g
energy('scf')
