%mem=30gb
%nproc=8

#B3LYP/cc-pVTZ Integral(Grid=SuperFineGrid) Opt=(Tight) Freq(Anharm) 

Water

0 1
O
H 1 r1
H 1 r1 2 a1
  Variables:
r1  0.98
a1  104.5

