molecule{
  o
  h 1 roh
  h 1 roh 2 ahoh

  roh = 0.957
  ahoh = 104.5
}

set basis sto-3g
energy('scf')
