molecule{
1 2
O 0.0 0.0 -0.143225816552
H 0.0 1.638036840407 1.136548822547
H 0.0 -1.638036840407 1.136548822547
units angstrom
}

set basis STO-3G
set d_convergence 12
set maxiter 100
set scf_type pk

set reference rohf

energy('scf')
