# Running OrCa

% pal nprocs 2 end
% MaxCore 8000 

! CCSD(T) cc-pvqz 

* xyz 0 1
O       -3.1403358162      4.5496815570     -0.0014963683                 
H       -2.1510094674      4.5069001746      0.0010564571                 
H       -3.4297011993      3.6043303389      0.0549140710  
*

