
%mem=30gb
%nproc=8

# RHF/STO-3G scf=(conver=12, MaxCycle=100)

RHF Energy

0 1
O 0.0 0.0 -0.143225816552
H 0.0 1.638036840407 1.136548822547
H 0.0 -1.638036840407 1.136548822547

